data/solutions/recovery/wellformed/moderate/flexible/wellformed_moderate_instance89/27.sol
Elapsed time: 7.98
Upper bound: 7244.0
Planning weighted value: 434603.0
C[0]=7244.0
C[1]=7238.0
C[2]=7234.0
C[3]=7232.0
C[4]=7217.0
C[5]=7198.0
y[0]=0
y[1]=5
y[2]=4
y[3]=0
y[4]=1
y[5]=4
y[6]=1
y[7]=0
y[8]=5
y[9]=5
y[10]=1
y[11]=3
y[12]=3
y[13]=2
y[14]=1
y[15]=2
y[16]=3
y[17]=0
y[18]=0
y[19]=3
y[20]=1
y[21]=4
y[22]=5
y[23]=1
y[24]=0
y[25]=4
y[26]=5
y[27]=0
y[28]=5
y[29]=1
y[30]=2
y[31]=3
y[32]=2
y[33]=4
y[34]=2
y[35]=1
y[36]=5
y[37]=5
y[38]=4
y[39]=5
y[40]=3
y[41]=2
