data/solutions/recovery/wellformed/moderate/flexible/wellformed_moderate_instance89/27.log

Log started (V12.6.3.0) Fri Apr 20 19:28:56 2018

New value for default parallel thread count: 1

Problem '/tmp/tmp8v2zKg.pyomo.lp' read.
Read time = 0.00 sec. (0.13 ticks)

Problem name         : /tmp/tmp8v2zKg.pyomo.lp
Objective sense      : Minimize
Variables            :     260  [Nneg: 1,  Binary: 252,  General Integer: 7]
Objective nonzeros   :       1
Linear constraints   :      97  [Less: 48,  Equal: 49]
  Nonzeros           :    8917
  RHS nonzeros       :      85

Variables            : Min LB: 0.000000         Max UB: 1.000000       
Objective nonzeros   : Min   : 1.000000         Max   : 1.000000       
Linear constraints   :
  Nonzeros           : Min   : 1.000000         Max   : 1980.000       
  RHS nonzeros       : Min   : 1.000000         Max   : 5.000000       
Tried aggregator 2 times.
MIP Presolve eliminated 42 rows and 6 columns.
Aggregator did 7 substitutions.
Reduced MIP has 48 rows, 247 columns, and 693 nonzeros.
Reduced MIP has 246 binaries, 1 generals, 0 SOSs, and 0 indicators.
Presolve time = 0.00 sec. (2.20 ticks)
Found incumbent of value 43363.000000 after 0.00 sec. (2.69 ticks)
Probing time = 0.00 sec. (0.26 ticks)
Cover probing fixed 0 vars, tightened 4 bounds.
Tried aggregator 1 time.
Reduced MIP has 48 rows, 247 columns, and 693 nonzeros.
Reduced MIP has 246 binaries, 1 generals, 0 SOSs, and 0 indicators.
Presolve time = 0.00 sec. (0.41 ticks)
Probing time = 0.00 sec. (0.18 ticks)
Clique table members: 41.
MIP emphasis: balance optimality and feasibility.
MIP search method: dynamic search.
Parallel mode: none, using 1 thread.
Root relaxation solution time = 0.00 sec. (0.20 ticks)

        Nodes                                         Cuts/
   Node  Left     Objective  IInf  Best Integer    Best Bound    ItCnt     Gap

*     0+    0                        43363.0000     1980.0000            95.43%
      0     0     7227.1667     9    43363.0000     7227.1667       11   83.33%
*     0+    0                         8917.0000     7227.1667            18.95%
      0     0     7228.0000    14     8917.0000       Cuts: 7       33   18.94%
*     0+    0                         7765.0000     7228.0000             6.92%
      0     0     7228.0000    16     7765.0000      Cuts: 12       47    6.92%
*     0+    0                         7606.0000     7228.0000             4.97%
      0     0     7228.0000    19     7606.0000       Cuts: 9       76    4.97%
*     0+    0                         7431.0000     7228.0000             2.73%
      0     2     7228.0000    11     7431.0000     7228.0000       76    2.73%
Elapsed time = 0.02 sec. (15.43 ticks, tree = 0.01 MB, solutions = 5)
*   100+   63                         7410.0000     7228.0000             2.46%
*   142    79      integral     0     7354.0000     7228.0000      835    1.71%
*   185   100      integral     0     7347.0000     7228.0000     1048    1.62%
*   285+  152                         7335.0000     7228.0000             1.46%
*   968+  553                         7306.0000     7228.0000             1.07%
*   970+  370                         7274.0000     7228.0000             0.63%
   1470   322     7228.0000    10     7274.0000     7228.0000     6385    0.63%
   1471   323     7228.0000    10     7274.0000     7228.0000     6386    0.63%
   1472   324     7228.0000    10     7274.0000     7228.0000     6387    0.63%
   1473   325     7228.0000     9     7274.0000     7228.0000     6390    0.63%
   1474   325     7228.0000     9     7274.0000     7228.0000     6391    0.63%
   1475   324     7228.0000     9     7274.0000     7228.0000     6393    0.63%
   1476   324     7228.0000     9     7274.0000     7228.0000     6394    0.63%
   1477   324     7228.0000     9     7274.0000     7228.0000     6395    0.63%
   1478   323     7228.0000     9     7274.0000     7228.0000     6396    0.63%
*  1570+  327                         7254.0000     7228.0000             0.36%
*  1970+  581                         7250.0000     7228.0000             0.30%
   2170   703     7228.0000    10     7250.0000     7228.0000     9569    0.30%
Elapsed time = 0.90 sec. (972.53 ticks, tree = 0.20 MB, solutions = 13)
   4772  1809     7228.0000    29     7250.0000     7228.0000    56169    0.30%
   4773  1810     7228.0000    25     7250.0000     7228.0000    56181    0.30%
   4774  1811     7228.0000    30     7250.0000     7228.0000    56266    0.30%
   4775  1812     7228.0000    28     7250.0000     7228.0000    56291    0.30%
   4776  1813     7228.0000    26     7250.0000     7228.0000    56296    0.30%
   4777  1814     7228.0000    25     7250.0000     7228.0000    56322    0.30%
   4778  1815     7228.0000    25     7250.0000     7228.0000    56381    0.30%
   4779  1816     7228.0000    27     7250.0000     7228.0000    56408    0.30%
   4780  1817     7232.4426    34     7250.0000     7228.0000    56523    0.30%
   4781  1818     7228.0000    23     7250.0000     7228.0000    56527    0.30%
Elapsed time = 1.63 sec. (1934.35 ticks, tree = 0.53 MB, solutions = 13)
   5956  1978        cutoff           7250.0000     7228.0000   102889    0.30%
   5957  1979     7228.0000    32     7250.0000     7228.0000   103002    0.30%
   5958  1980     7228.0000    25     7250.0000     7228.0000   103010    0.30%
   5959  1981     7228.0000    24     7250.0000     7228.0000   103018    0.30%
   5960  1982     7238.0276    32     7250.0000     7228.0000   103218    0.30%
   5961  1983     7228.0000    27     7250.0000     7228.0000   103259    0.30%
   5962  1984     7228.0000    25     7250.0000     7228.0000   103275    0.30%
   5963  1985     7228.0000    29     7250.0000     7228.0000   103299    0.30%
   5964  1986     7228.0000    28     7250.0000     7228.0000   103301    0.30%
   5965  1987     7228.0000    28     7250.0000     7228.0000   103384    0.30%
Elapsed time = 2.31 sec. (2905.58 ticks, tree = 0.69 MB, solutions = 13)
*  6090+ 1959                         7248.0000     7228.0000             0.28%
*  6360+ 1917                         7245.0000     7228.0000             0.23%
   6999  1958     7228.0000    34     7245.0000     7228.0000   146019    0.23%
   7000  1959     7228.0000    30     7245.0000     7228.0000   146025    0.23%
   7001  1960     7228.0000    29     7245.0000     7228.0000   146059    0.23%
   7002  1961     7228.0000    30     7245.0000     7228.0000   146069    0.23%
   7003  1962     7228.0000    28     7245.0000     7228.0000   146083    0.23%
   7004  1963     7228.0000    28     7245.0000     7228.0000   146089    0.23%
   7005  1964     7228.0000    28     7245.0000     7228.0000   146104    0.23%
   7006  1965     7228.0000    29     7245.0000     7228.0000   146115    0.23%
   7007  1966     7228.0000    31     7245.0000     7228.0000   146130    0.23%
   7008  1967     7228.0000    32     7245.0000     7228.0000   146143    0.23%
Elapsed time = 3.00 sec. (3862.13 ticks, tree = 0.79 MB, solutions = 15)
   7791  1926     7228.0000    41     7245.0000     7228.0000   188301    0.23%
   7792  1927     7228.0000    30     7245.0000     7228.0000   188312    0.23%
   7793  1928     7228.0000    23     7245.0000     7228.0000   188329    0.23%
   7794  1929     7228.0000    23     7245.0000     7228.0000   188337    0.23%
   7795  1929     7228.0000    18     7245.0000     7228.0000   188357    0.23%
   7796  1930     7228.0000    23     7245.0000     7228.0000   188393    0.23%
   7797  1931     7228.0000    22     7245.0000     7228.0000   188397    0.23%
   7798  1932     7228.0000    22     7245.0000     7228.0000   188398    0.23%
   7799  1933     7228.0000    20     7245.0000     7228.0000   188401    0.23%
   7800  1934     7228.0000    17     7245.0000     7228.0000   188412    0.23%
Elapsed time = 3.65 sec. (4824.46 ticks, tree = 0.84 MB, solutions = 15)
   8585  1918     7228.0000    35     7245.0000     7228.0000   230417    0.23%
   8586  1919     7232.7348    40     7245.0000     7228.0000   230595    0.23%
   8587  1920     7232.8976    36     7245.0000     7228.0000   230602    0.23%
   8588  1919        cutoff           7245.0000     7228.0000   230610    0.23%
   8589  1920     7233.9546    37     7245.0000     7228.0000   230623    0.23%
   8590  1921     7234.1865    37     7245.0000     7228.0000   230625    0.23%
   8591  1922     7239.3338    30     7245.0000     7228.0000   230640    0.23%
   8592  1922     7239.3795    29     7245.0000     7228.0000   230643    0.23%
   8593  1921        cutoff           7245.0000     7228.0000   230648    0.23%
   8594  1920        cutoff           7245.0000     7228.0000   230800    0.23%
Elapsed time = 4.30 sec. (5787.07 ticks, tree = 0.88 MB, solutions = 15)
   9377  2016     7230.1015    35     7245.0000     7228.0000   268229    0.23%
   9378  2017     7230.1015    35     7245.0000     7228.0000   268230    0.23%
   9379  2018     7237.9931    12     7245.0000     7228.0000   268278    0.23%
   9380  2017        cutoff           7245.0000     7228.0000   268281    0.23%
   9381  2016        cutoff           7245.0000     7228.0000   268284    0.23%
   9382  2015    infeasible           7245.0000     7228.0000   268304    0.23%
   9383  2014        cutoff           7245.0000     7228.0000   268453    0.23%
   9384  2015     7228.0000    43     7245.0000     7228.0000   268575    0.23%
   9385  2016     7228.0000    34     7245.0000     7228.0000   268587    0.23%
   9386  2017     7228.0000    31     7245.0000     7228.0000   268733    0.23%
Elapsed time = 4.95 sec. (6754.33 ticks, tree = 0.92 MB, solutions = 15)
  10168  2196        cutoff           7245.0000     7228.0000   304845    0.23%
  10169  2197     7229.9338    40     7245.0000     7228.0000   304986    0.23%
  10170  2198     7230.0127    40     7245.0000     7228.0000   304989    0.23%
  10171  2199     7230.0757    41     7245.0000     7228.0000   304991    0.23%
  10172  2200     7231.5256    41     7245.0000     7228.0000   305005    0.23%
  10173  2201     7231.5774    38     7245.0000     7228.0000   305013    0.23%
  10174  2202     7232.1411    45     7245.0000     7228.0000   305036    0.23%
  10175  2203     7232.2836    46     7245.0000     7228.0000   305037    0.23%
  10176  2204     7232.7146    46     7245.0000     7228.0000   305047    0.23%
  10177  2205     7233.0508    47     7245.0000     7228.0000   305055    0.23%
Elapsed time = 5.61 sec. (7715.13 ticks, tree = 0.96 MB, solutions = 15)
  10650  2228     7231.9480    45     7245.0000     7228.0000   333960    0.23%
* 10651+ 2170                         7244.0000     7228.0000             0.22%
  10651  2170        cutoff           7244.0000     7228.0000   334064    0.22%
  10652  2169        cutoff           7244.0000     7228.0000   334343    0.22%
  10653  2168    infeasible           7244.0000     7228.0000   334343    0.22%
  10654  2167        cutoff           7244.0000     7228.0000   334493    0.22%
  10655  2166        cutoff           7244.0000     7228.0000   334693    0.22%
  10656  2165        cutoff           7244.0000     7228.0000   334809    0.22%
  10657  2166     7228.0000    50     7244.0000     7228.0000   334958    0.22%
  10658  2167     7228.0000    50     7244.0000     7228.0000   335046    0.22%
  10659  2168     7228.0000    38     7244.0000     7228.0000   335059    0.22%
Elapsed time = 6.71 sec. (9039.77 ticks, tree = 0.95 MB, solutions = 16)
  11696  1853        cutoff           7244.0000     7230.2064   371315    0.19%
  11697  1852        cutoff           7244.0000     7230.2065   371320    0.19%
  11698  1851    infeasible           7244.0000     7230.2212   371320    0.19%
  11699  1850        cutoff           7244.0000     7230.2245   371333    0.19%
  11700  1849        cutoff           7244.0000     7230.2304   371341    0.19%
  11701  1848        cutoff           7244.0000     7230.2306   371347    0.19%
  11702  1847        cutoff           7244.0000     7230.2312   371376    0.19%
  11703  1848     7231.4063    41     7244.0000     7230.2325   371418    0.19%
  11704  1847        cutoff           7244.0000     7230.2325   371446    0.19%

Cover cuts applied:  151
Mixed integer rounding cuts applied:  19
Lift and project cuts applied:  1
Gomory fractional cuts applied:  1

Root node processing (before b&c):
  Real time             =    0.02 sec. (15.44 ticks)
Sequential b&c:
  Real time             =    7.94 sec. (10827.99 ticks)
                          ------------
Total (root+branch&cut) =    7.96 sec. (10843.43 ticks)

Solution pool: 16 solutions saved.

MIP - Integer optimal solution:  Objective =  7.2440000000e+03
Solution time =    7.96 sec.  Iterations = 398323  Nodes = 14017
Deterministic time = 10843.43 ticks  (1361.81 ticks/sec)


Incumbent solution written to file '/tmp/tmp2FNK35.cplex.sol'.
